<number of tasks>
20

<cycle time>
1000

<order strength>
0,5


<task times>
1 153
2 369
3 190
4 192
5 64
6 74
7 216
8 167
9 142
10 120
11 47
12 449
13 327
14 309
15 252
16 161
17 199
18 56
19 52
20 127

<precedence relations>
1,6
1,17
2,4
2,5
2,7
2,12
3,4
4,9
5,14
6,8
7,16
8,11
8,12
9,10
9,11
10,13
10,16
10,17
11,15
11,16
12,14
12,15
13,19
13,20
14,20
15,18
16,19

<end>
